
Gurobi 7.0.1 (linux64, Java) logging started Thu 07 Sep 2017 14:21:01 BST

Optimize a model with 9 rows, 81 columns and 81 nonzeros
Model has 584 quadratic objective terms
Variable types: 0 continuous, 81 integer (81 binary)
Coefficient statistics:
  Matrix range     [1e+00, 1e+00]
  Objective range  [1e+00, 1e+03]
  QObjective range [3e+01, 2e+02]
  Bounds range     [1e+00, 1e+00]
  RHS range        [1e+00, 1e+00]
Found heuristic solution: objective 9800
Modified 81 Q diagonals
Presolve time: 0.00s
Presolved: 9 rows, 81 columns, 81 nonzeros
Presolved model has 665 quadratic objective terms
Variable types: 0 continuous, 81 integer (81 binary)

Root relaxation: objective -5.577340e+02, 62 iterations, 0.00 seconds

    Nodes    |    Current Node    |     Objective Bounds      |     Work
 Expl Unexpl |  Obj  Depth IntInf | Incumbent    BestBd   Gap | It/Node Time

     0     0 -557.73398    0   51 9800.00000 -557.73398   106%     -    0s
H    0     0                    4591.4878407 -557.73398   112%     -    0s
H    0     0                    3447.1938595 -557.73398   116%     -    0s
H    0     0                    1321.0222205 -557.73398   142%     -    0s
H    0     0                    1318.6288361 -557.73398   142%     -    0s
     0     2 -557.73398    0   51 1318.62884 -557.73398   142%     -    0s
H  175   138                    1218.6288361 -182.06795   115%   2.8    0s

Explored 169425 nodes (556905 simplex iterations) in 4.83 seconds
Thread count was 8 (of 8 available processors)

Solution count 6: 1218.63 1318.63 1321.02 ... 9800
Pool objective bound 1218.63

Optimal solution found (tolerance 1.00e-04)
Best objective 1.218628836130e+03, best bound 1.218628836130e+03, gap 0.0000%

Gurobi 7.0.1 (linux64, Java) logging started Thu Sep  7 14:21:55 2017

Optimize a model with 10 rows, 100 columns and 100 nonzeros
Model has 828 quadratic objective terms
Variable types: 0 continuous, 100 integer (100 binary)
Coefficient statistics:
  Matrix range     [1e+00, 1e+00]
  Objective range  [7e+00, 1e+03]
  QObjective range [5e+00, 2e+02]
  Bounds range     [1e+00, 1e+00]
  RHS range        [1e+00, 1e+00]
Found heuristic solution: objective 10900
Modified 100 Q diagonals
Presolve time: 0.00s
Presolved: 10 rows, 100 columns, 100 nonzeros
Presolved model has 928 quadratic objective terms
Variable types: 0 continuous, 100 integer (100 binary)

Root relaxation: objective -3.710265e+02, 87 iterations, 0.00 seconds

    Nodes    |    Current Node    |     Objective Bounds      |     Work
 Expl Unexpl |  Obj  Depth IntInf | Incumbent    BestBd   Gap | It/Node Time

     0     0 -371.02652    0   76 10900.0000 -371.02652   103%     -    0s
H    0     0                    3538.8896487 -371.02652   110%     -    0s
H    0     0                    2473.0703644 -371.02652   115%     -    0s
H    0     0                    2322.6680278 -371.02652   116%     -    0s
H    0     0                    2302.1893754 -371.02652   116%     -    0s
     0     2 -371.02652    0   76 2302.18938 -371.02652   116%     -    0s
H  110   104                    2299.8598851  131.15961  94.3%   2.5    0s
H  122   116                    2299.1644142  131.15961  94.3%   2.5    0s
H  159   156                    2199.2594090  131.15961  94.0%   2.4    0s
H  243   210                    2186.9491280  162.42514  92.6%   2.6    0s
H  524   435                    2185.8212886  323.52788  85.2%   2.5    0s
H  929   740                    2181.3234424  384.50657  82.4%   2.6    0s
 76880 50533 1913.01336   38   24 2181.32344 1086.38963  50.2%   2.5    5s
 205451 129182 1832.45646   45   31 2181.32344 1262.77637  42.1%   2.5   10s

Explored 206268 nodes (515292 simplex iterations) in 10.00 seconds
Thread count was 8 (of 8 available processors)

Solution count 10: 2181.32 2185.82 2186.95 ... 3538.89
Pool objective bound 1263.44

Time limit reached
Best objective 2.181323442416e+03, best bound 1.263439007171e+03, gap 42.0792%

Gurobi 7.0.1 (linux64, Java) logging started Thu 07 Sep 2017 14:37:43 BST

Optimize a model with 9 rows, 81 columns and 81 nonzeros
Model has 584 quadratic objective terms
Variable types: 0 continuous, 81 integer (81 binary)
Coefficient statistics:
  Matrix range     [1e+00, 1e+00]
  Objective range  [1e+00, 1e+03]
  QObjective range [3e+01, 2e+02]
  Bounds range     [1e+00, 1e+00]
  RHS range        [1e+00, 1e+00]
Found heuristic solution: objective 9800
Modified 81 Q diagonals
Presolve time: 0.00s
Presolved: 9 rows, 81 columns, 81 nonzeros
Presolved model has 665 quadratic objective terms
Variable types: 0 continuous, 81 integer (81 binary)

Root relaxation: objective -5.577340e+02, 62 iterations, 0.00 seconds

    Nodes    |    Current Node    |     Objective Bounds      |     Work
 Expl Unexpl |  Obj  Depth IntInf | Incumbent    BestBd   Gap | It/Node Time

     0     0 -557.73398    0   51 9800.00000 -557.73398   106%     -    0s
H    0     0                    4591.4878407 -557.73398   112%     -    0s
H    0     0                    3447.1938595 -557.73398   116%     -    0s
H    0     0                    1321.0222205 -557.73398   142%     -    0s
H    0     0                    1318.6288361 -557.73398   142%     -    0s
     0     2 -557.73398    0   51 1318.62884 -557.73398   142%     -    0s
H  175   138                    1218.6288361 -182.06795   115%   2.8    0s

Explored 169425 nodes (556905 simplex iterations) in 4.59 seconds
Thread count was 8 (of 8 available processors)

Solution count 6: 1218.63 1318.63 1321.02 ... 9800
Pool objective bound 1218.63

Optimal solution found (tolerance 1.00e-04)
Best objective 1.218628836130e+03, best bound 1.218628836130e+03, gap 0.0000%
